* (set-logic QF_BV)
* (set-info :smt-lib-version 2.6)
* (set-info :category "crafted")
* (set-info :status unsat)
* (declare-fun v0 () (_ BitVec 16))
* (declare-fun v1 () (_ BitVec 16))
* (declare-fun v2 () (_ BitVec 16))
* (declare-fun v3 () (_ BitVec 16))
* (declare-fun v4 () (_ BitVec 16))
* (declare-fun v5 () (_ BitVec 16))
* (assert (and
* 	 (bvult v0 v1)
* 	 (bvult (_ bv5 16) v3)
* 	 (bvult v1 v2)
* 	 (bvult v1 v3)
* 	 (bvult v5 (_ bv8 16))
* 	 (bvult v2 v4)
* 	 (bvult v3 v4)
* 	 (bvult v4 v5)
* 	 ))
* (check-sat)
* (exit)
* unsat
* #variable= 128 #constraint= 40
+1 x17 +2 x18 +4 x19 +8 x20 +16 x21 +32 x22 +64 x23 +128 x24 +256 x25 +512 x26 +1024 x27 +2048 x28 +4096 x29 +8192 x30 +16384 x31 +32768 x32 -1 x1 -2 x2 -4 x3 -8 x4 -16 x5 -32 x6 -64 x7 -128 x8 -256 x9 -512 x10 -1024 x11 -2048 x12 -4096 x13 -8192 x14 -16384 x15 -32768 x16 >= 1;
+1 x48 = 0;
+1 x47 = 0;
+1 x45 = 0;
+1 x46 = 0;
+1 x49 +2 x50 +4 x51 +8 x52 +16 x53 +32 x54 +64 x55 +128 x56 +256 x57 +512 x58 +1024 x59 +2048 x60 +4096 x61 +8192 x62 +16384 x63 +32768 x64 -1 x33 -2 x34 -4 x35 -8 x36 -16 x37 -32 x38 -64 x39 -128 x40 -256 x41 -512 x42 -1024 x43 -2048 x44 -4096 x45 -8192 x46 -16384 x47 -32768 x48 >= 1;
+1 x36 = 0;
+1 x33 = 1;
+1 x34 = 0;
+1 x35 = 1;
+1 x37 = 0;
+1 x38 = 0;
+1 x39 = 0;
+1 x40 = 0;
+1 x41 = 0;
+1 x42 = 0;
+1 x43 = 0;
+1 x44 = 0;
+1 x65 +2 x66 +4 x67 +8 x68 +16 x69 +32 x70 +64 x71 +128 x72 +256 x73 +512 x74 +1024 x75 +2048 x76 +4096 x77 +8192 x78 +16384 x79 +32768 x80 -1 x17 -2 x18 -4 x19 -8 x20 -16 x21 -32 x22 -64 x23 -128 x24 -256 x25 -512 x26 -1024 x27 -2048 x28 -4096 x29 -8192 x30 -16384 x31 -32768 x32 >= 1;
+1 x49 +2 x50 +4 x51 +8 x52 +16 x53 +32 x54 +64 x55 +128 x56 +256 x57 +512 x58 +1024 x59 +2048 x60 +4096 x61 +8192 x62 +16384 x63 +32768 x64 -1 x17 -2 x18 -4 x19 -8 x20 -16 x21 -32 x22 -64 x23 -128 x24 -256 x25 -512 x26 -1024 x27 -2048 x28 -4096 x29 -8192 x30 -16384 x31 -32768 x32 >= 1;
+1 x112 = 0;
+1 x111 = 0;
+1 x110 = 0;
+1 x109 = 0;
+1 x97 +2 x98 +4 x99 +8 x100 +16 x101 +32 x102 +64 x103 +128 x104 +256 x105 +512 x106 +1024 x107 +2048 x108 +4096 x109 +8192 x110 +16384 x111 +32768 x112 -1 x81 -2 x82 -4 x83 -8 x84 -16 x85 -32 x86 -64 x87 -128 x88 -256 x89 -512 x90 -1024 x91 -2048 x92 -4096 x93 -8192 x94 -16384 x95 -32768 x96 >= 1;
+1 x97 = 0;
+1 x98 = 0;
+1 x99 = 0;
+1 x100 = 1;
+1 x101 = 0;
+1 x102 = 0;
+1 x103 = 0;
+1 x104 = 0;
+1 x105 = 0;
+1 x106 = 0;
+1 x107 = 0;
+1 x108 = 0;
+1 x113 +2 x114 +4 x115 +8 x116 +16 x117 +32 x118 +64 x119 +128 x120 +256 x121 +512 x122 +1024 x123 +2048 x124 +4096 x125 +8192 x126 +16384 x127 +32768 x128 -1 x65 -2 x66 -4 x67 -8 x68 -16 x69 -32 x70 -64 x71 -128 x72 -256 x73 -512 x74 -1024 x75 -2048 x76 -4096 x77 -8192 x78 -16384 x79 -32768 x80 >= 1;
+1 x113 +2 x114 +4 x115 +8 x116 +16 x117 +32 x118 +64 x119 +128 x120 +256 x121 +512 x122 +1024 x123 +2048 x124 +4096 x125 +8192 x126 +16384 x127 +32768 x128 -1 x49 -2 x50 -4 x51 -8 x52 -16 x53 -32 x54 -64 x55 -128 x56 -256 x57 -512 x58 -1024 x59 -2048 x60 -4096 x61 -8192 x62 -16384 x63 -32768 x64 >= 1;
+1 x81 +2 x82 +4 x83 +8 x84 +16 x85 +32 x86 +64 x87 +128 x88 +256 x89 +512 x90 +1024 x91 +2048 x92 +4096 x93 +8192 x94 +16384 x95 +32768 x96 -1 x113 -2 x114 -4 x115 -8 x116 -16 x117 -32 x118 -64 x119 -128 x120 -256 x121 -512 x122 -1024 x123 -2048 x124 -4096 x125 -8192 x126 -16384 x127 -32768 x128 >= 1;
